Problem:    
Rows:       256
Columns:    89 (72 integer, 72 binary)
Non-zeros:  960
Status:     INTEGER OPTIMAL
Objective:  value = 59.72419 (MINimum)

   No.   Row name        Activity     Lower bound   Upper bound
------ ------------    ------------- ------------- -------------
     1 r.5                   1059.72             0               
     2 r.6                  -954.999      -991.291               
     3 r.7                   59.7242             0               
     4 r.8                   50.5871      -987.548               
     5 r.9                   1059.72             0               
     6 r.10                 -966.622      -990.759               
     7 r.11                  59.7242             0               
     8 r.12                  38.9648      -987.528               
     9 r.13                  59.7242             0               
    10 r.14                  36.2071      -983.634               
    11 r.15                  1059.72             0               
    12 r.16                 -963.793      -982.359               
    13 r.17                  59.7242             0               
    14 r.18                 -985.436      -991.559               
    15 r.19                  1059.72             0               
    16 r.20                 -981.434      -987.557               
    17 r.21                  1059.72             0               
    18 r.22                 -981.521      -991.743               
    19 r.23                  59.7242             0               
    20 r.24                  41.7226      -990.106               
    21 r.25                  1059.72             0               
    22 r.26                 -999.534      -999.534               
    23 r.27                  59.7242             0               
    24 r.28                  11.6389      -997.931               
    25 r.29                  59.7242             0               
    26 r.30                  59.7242       -976.11               
    27 r.31                  1059.72             0               
    28 r.32                 -940.276      -988.105               
    29 r.33                  59.7242             0               
    30 r.34                  59.7242      -975.955               
    31 r.35                  1059.72             0               
    32 r.36                 -952.171      -988.378               
    33 r.37                        1             1             = 
    34 r.38                        1             1             = 
    35 r.39                        1             1             = 
    36 r.40                        1             1             = 
    37 r.41                        1             1             = 
    38 r.42                        1             1             = 
    39 r.43                        1             1             = 
    40 r.44                        1             1             = 
    41 r.45                        2             2               
    42 r.46                       -2         -1001               
    43 r.47                 -14.4511      -990.759               
    44 r.48                     1000             2               
    45 r.49                    -1000         -1001               
    46 r.50                  1991.14      -987.528               
    47 r.51                     1001             2               
    48 r.52                    -1001         -1001               
    49 r.53                  1988.38      -983.634               
    50 r.54                     1001             2               
    51 r.55                    -1001         -1001               
    52 r.56                  1988.38      -982.359               
    53 r.57                     1001             2               
    54 r.58                    -1001         -1001               
    55 r.59                  966.735      -991.559               
    56 r.60                     1001             2               
    57 r.61                    -1001         -1001               
    58 r.62                  1970.74      -987.557               
    59 r.63                        2             2               
    60 r.64                       -2         -1001               
    61 r.65                 -29.3501      -991.743               
    62 r.66                     1000             2               
    63 r.67                    -1000         -1001               
    64 r.68                  1993.89      -990.106               
    65 r.69                 -961.123      -991.291               
    66 r.70                  44.4637      -987.548               
    67 r.71                 -961.123      -991.291               
    68 r.72                  44.4637      -987.548               
    69 r.73                  11.8948       -976.11               
    70 r.74                 -988.105      -988.105               
    71 r.75                  11.8948       -976.11               
    72 r.76                 -988.105      -988.105               
    73 r.77                     1001             2               
    74 r.78                    -1001         -1001               
    75 r.79                  2011.89      -975.955               
    76 r.80                     1001             2               
    77 r.81                    -1001         -1001               
    78 r.82                     2000      -988.378               
    79 r.83                        2             2               
    80 r.84                       -2         -1001               
    81 r.85                  8.79345       8.70854               
    82 r.86                     1000             2               
    83 r.87                    -1000         -1001               
    84 r.88                  2014.38       12.4523               
    85 r.89                     1001             2               
    86 r.90                    -1001         -1001               
    87 r.91                     2000      -983.634               
    88 r.92                     1001             2               
    89 r.93                    -1001         -1001               
    90 r.94                     2000      -982.359               
    91 r.95                     1001             2               
    92 r.96                    -1001         -1001               
    93 r.97                  978.357      -991.559               
    94 r.98                     1001             2               
    95 r.99                    -1001         -1001               
    96 r.100                 1982.36      -987.557               
    97 r.101                       2             2               
    98 r.102                      -2         -1001               
    99 r.103                -17.7278      -991.743               
   100 r.104                    1000             2               
   101 r.105                   -1000         -1001               
   102 r.106                 2005.52      -990.106               
   103 r.107                -972.745      -990.759               
   104 r.108                 32.8414      -987.528               
   105 r.109                -972.745      -990.759               
   106 r.110                 32.8414      -987.528               
   107 r.111                    1001             2               
   108 r.112                   -1001         -1001               
   109 r.113                 2023.52       -976.11               
   110 r.114                    1001             2               
   111 r.115                   -1001         -1001               
   112 r.116                 2023.52      -988.105               
   113 r.117                 23.5171      -975.955               
   114 r.118                -988.378      -988.378               
   115 r.119                 23.5171      -975.955               
   116 r.120                -988.378      -988.378               
   117 r.121                    1001             2               
   118 r.122                   -1001         -1001               
   119 r.123                 2008.79       8.70854               
   120 r.124                    1001             2               
   121 r.125                   -1001         -1001               
   122 r.126                 2014.38       12.4523               
   123 r.127                    1001             2               
   124 r.128                   -1001         -1001               
   125 r.129                 1997.17        9.2413               
   126 r.130                    1001             2               
   127 r.131                   -1001         -1001               
   128 r.132                 2002.76       12.4719               
   129 r.133                 1021.64      -983.634               
   130 r.134                 21.6428      -982.359               
   131 r.135                 17.6411      -983.634               
   132 r.136                -982.359      -982.359               
   133 r.137                    1001             2               
   134 r.138                   -1001         -1001               
   135 r.139                 1982.27      -991.743               
   136 r.140                    1001             2               
   137 r.141                   -1001         -1001               
   138 r.142                 2005.52      -990.106               
   139 r.143                 30.0837      -983.634               
   140 r.144                -969.916      -982.359               
   141 r.145                 30.0837      -983.634               
   142 r.146                -969.916      -982.359               
   143 r.147                    1000             2               
   144 r.148                   -1000         -1001               
   145 r.149                 2023.52       -976.11               
   146 r.150                       2             2               
   147 r.151                      -2         -1001               
   148 r.152                -976.483      -988.105               
   149 r.153                 23.5171      -975.955               
   150 r.154                -988.378      -988.378               
   151 r.155                 23.5171      -975.955               
   152 r.156                -988.378      -988.378               
   153 r.157                    1001             2               
   154 r.158                   -1001         -1001               
   155 r.159                 3030.44       8.70854               
   156 r.160                    1001             2               
   157 r.161                   -1001         -1001               
   158 r.162                 2032.02       12.4523               
   159 r.163                    1001             2               
   160 r.164                   -1001         -1001               
   161 r.165                 3018.81        9.2413               
   162 r.166                    1001             2               
   163 r.167                   -1001         -1001               
   164 r.168                  2020.4       12.4719               
   165 r.169                    1001             2               
   166 r.170                   -1001         -1001               
   167 r.171                 3003.91      -991.743               
   168 r.172                    1001             2               
   169 r.173                   -1001         -1001               
   170 r.174                 2023.16      -990.106               
   171 r.175                -991.559      -991.559               
   172 r.176                -987.557      -987.557               
   173 r.177                -991.559      -991.559               
   174 r.178                -987.557      -987.557               
   175 r.179                    1000             2               
   176 r.180                   -1000         -1001               
   177 r.181                 3045.16       -976.11               
   178 r.182                       2             2               
   179 r.183                      -2         -1001               
   180 r.184                -958.842      -988.105               
   181 r.185                 1045.16      -975.955               
   182 r.186                 33.2651      -988.378               
   183 r.187                 41.1582      -975.955               
   184 r.188                -970.737      -988.378               
   185 r.189                       2             2               
   186 r.190                      -2         -1001               
   187 r.191                 20.8636       8.70854               
   188 r.192                    1000             2               
   189 r.193                   -1000         -1001               
   190 r.194                 2014.38       12.4523               
   191 r.195                       2             2               
   192 r.196                      -2         -1001               
   193 r.197                  9.2413        9.2413               
   194 r.198                    1000             2               
   195 r.199                   -1000         -1001               
   196 r.200                 2002.76       12.4719               
   197 r.201                    1001             2               
   198 r.202                   -1001         -1001               
   199 r.203                 2012.07       16.3659               
   200 r.204                    1001             2               
   201 r.205                   -1001         -1001               
   202 r.206                    2000       17.6411               
   203 r.207                    1001             2               
   204 r.208                   -1001         -1001               
   205 r.209                 990.427        8.4409               
   206 r.210                    1001             2               
   207 r.211                   -1001         -1001               
   208 r.212                 1982.36       12.4426               
   209 r.213                -987.644      -991.743               
   210 r.214                 35.5992      -990.106               
   211 r.215                -987.644      -991.743               
   212 r.216                 35.5992      -990.106               
   213 r.217                 35.5872       -976.11               
   214 r.218                -964.413      -988.105               
   215 r.219                 23.5171       -976.11               
   216 r.220                -976.483      -988.105               
   217 r.221                 35.5872      -975.955               
   218 r.222                -976.308      -988.378               
   219 r.223                 23.5171      -975.955               
   220 r.224                -988.378      -988.378               
   221 r.225                    1001             2               
   222 r.226                   -1001         -1001               
   223 r.227                 1973.65        9.2413               
   224 r.228                    1001             2               
   225 r.229                   -1001         -1001               
   226 r.230                 1979.24       12.4719               
   227 r.231                    1000             2               
   228 r.232                   -1000         -1001               
   229 r.233                 1976.48       16.3659               
   230 r.234                       2             2               
   231 r.235                      -2         -1001               
   232 r.236                 976.483       17.6411               
   233 r.237                    1000             2               
   234 r.238                   -1000         -1001               
   235 r.239                  954.84        8.4409               
   236 r.240                       2             2               
   237 r.241                      -2         -1001               
   238 r.242                 958.842       12.4426               
   239 r.243                    1000             2               
   240 r.244                   -1000         -1001               
   241 r.245                    2000      -975.955               
   242 r.246                       2             2               
   243 r.247                      -2         -1001               
   244 r.248                -11.8948      -988.378               
   245 r.249                    1001             2               
   246 r.250                   -1001         -1001               
   247 r.251                 1985.28       8.70854               
   248 r.252                    1001             2               
   249 r.253                   -1001         -1001               
   250 r.254                 2002.76       12.4523               
   251 r.255                    1000             2               
   252 r.256                   -1000         -1001               
   253 r.257                    2000       23.8899               
   254 r.258                       2             2               
   255 r.259                      -2         -1001               
   256 r.260                 11.8948       11.8948               

   No. Column name       Activity     Lower bound   Upper bound
------ ------------    ------------- ------------- -------------
     1 tt                    59.7242             0               
     2 s_1_1        *              1             0             1 
     3 t_1_1                 11.8948             0               
     4 s_1_7        *              0             0             1 
     5 s_2_1        *              0             0             1 
     6 t_2_1                 11.8948             0               
     7 s_2_7        *              1             0             1 
     8 s_1_2        *              1             0             1 
     9 t_1_2                 23.5171             0               
    10 s_1_8        *              0             0             1 
    11 s_2_2        *              0             0             1 
    12 t_2_2                 23.5171             0               
    13 s_2_8        *              1             0             1 
    14 s_1_3        *              0             0             1 
    15 t_1_3                 23.5171             0               
    16 s_2_3        *              1             0             1 
    17 t_2_3                 23.5171             0               
    18 s_1_4        *              0             0             1 
    19 t_1_4                 1045.16             0               
    20 s_2_4        *              1             0             1 
    21 t_2_4                 41.1582             0               
    22 s_1_5        *              1             0             1 
    23 t_1_5                 35.5872             0               
    24 s_2_5        *              0             0             1 
    25 t_2_5                 23.5171             0               
    26 s_1_6        *              1             0             1 
    27 t_1_6                 53.6008             0               
    28 s_2_6        *              0             0             1 
    29 t_2_6                 53.6008             0               
    30 t_1_7                       0             0               
    31 t_2_7                       0             0               
    32 t_1_8                       0             0               
    33 t_2_8                 11.8948             0               
    34 r_1_1_2      *              0             0             1 
    35 u_1_1_2      *              0             0             1 
    36 r_2_1_2      *              1             0             1 
    37 u_2_1_2      *              0             0             1 
    38 r_1_1_3      *              1             0             1 
    39 u_1_1_3      *              0             0             1 
    40 r_2_1_3      *              1             0             1 
    41 u_2_1_3      *              0             0             1 
    42 r_1_1_4      *              1             0             1 
    43 u_1_1_4      *              0             0             1 
    44 r_2_1_4      *              1             0             1 
    45 u_2_1_4      *              0             0             1 
    46 r_1_1_5      *              0             0             1 
    47 u_1_1_5      *              0             0             1 
    48 r_2_1_5      *              1             0             1 
    49 u_2_1_5      *              0             0             1 
    50 r_1_1_8      *              1             0             1 
    51 u_1_1_8      *              0             0             1 
    52 r_2_1_8      *              1             0             1 
    53 u_2_1_8      *              0             0             1 
    54 r_1_2_3      *              1             0             1 
    55 u_1_2_3      *              0             0             1 
    56 r_2_2_3      *              1             0             1 
    57 u_2_2_3      *              0             0             1 
    58 r_1_2_4      *              1             0             1 
    59 u_1_2_4      *              0             0             1 
    60 r_2_2_4      *              1             0             1 
    61 u_2_2_4      *              0             0             1 
    62 r_1_2_5      *              0             0             1 
    63 u_1_2_5      *              0             0             1 
    64 r_2_2_5      *              1             0             1 
    65 u_2_2_5      *              0             0             1 
    66 r_1_2_7      *              1             0             1 
    67 u_1_2_7      *              0             0             1 
    68 r_2_2_7      *              1             0             1 
    69 u_2_2_7      *              0             0             1 
    70 r_1_3_5      *              1             0             1 
    71 u_1_3_5      *              0             0             1 
    72 r_2_3_5      *              1             0             1 
    73 u_2_3_5      *              0             0             1 
    74 r_1_3_7      *              1             0             1 
    75 u_1_3_7      *              0             0             1 
    76 r_2_3_7      *              0             0             1 
    77 u_2_3_7      *              1             0             1 
    78 r_1_4_5      *              1             0             1 
    79 u_1_4_5      *              0             0             1 
    80 r_2_4_5      *              1             0             1 
    81 u_2_4_5      *              0             0             1 
    82 r_1_4_7      *              1             0             1 
    83 u_1_4_7      *              0             0             1 
    84 r_2_4_7      *              0             0             1 
    85 u_2_4_7      *              1             0             1 
    86 r_1_7_8      *              1             0             1 
    87 u_1_7_8      *              0             0             1 
    88 r_2_7_8      *              0             0             1 
    89 u_2_7_8      *              0             0             1 

Integer feasibility conditions:

KKT.PE: max.abs.err = 4.55e-13 on row 22
        max.rel.err = 2.13e-16 on row 22
        High quality

KKT.PB: max.abs.err = 1.14e-13 on row 171
        max.rel.err = 1.15e-16 on row 171
        High quality

End of output
